n_res = 4;
rc = [ 27, 27, 29, 21 ];
n_tasks = 30;
d = [ 5, 3, 1, 1, 5, 2, 2, 8, 9, 1, 4, 2, 4, 1, 1, 3, 7, 6, 1, 8, 3, 3, 10, 8, 7, 4, 5, 2, 7, 5 ];
rr = [| 27, 27, 27, 27, 27, 27, 27, 27, 27, 27, 27, 27, 27, 27, 27, 27, 27, 27, 27, 27, 27, 27, 27, 27, 27, 27, 27, 27, 27, 27
      | 27, 27, 27, 27, 27, 27, 27, 27, 27, 27, 27, 27, 27, 27, 27, 27, 27, 27, 27, 27, 27, 27, 27, 27, 27, 27, 27, 27, 27, 27
      | 29, 29, 29, 29, 29, 29, 29, 29, 29, 29, 29, 29, 29, 29, 29, 29, 29, 29, 29, 29, 29, 29, 29, 29, 29, 29, 29, 29, 29, 29
      | 21, 21, 21, 21, 21, 21, 21, 21, 21, 21, 21, 21, 21, 21, 21, 21, 21, 21, 21, 21, 21, 21, 21, 21, 21, 21, 21, 21, 21, 21|];
suc = [ { 4 },
       { 5, 16, 25 },
       { 9, 13, 18 },
       { 11, 15, 17 },
       { 6, 7, 14 },
       { 8, 10, 19 },
       { 21 },
       { 22 },
       { 20 },
       { 12 },
       { 16, 30 },
       { 28 },
       { 26 },
       { 18, 28 },
       { 25, 26 },
       { 26, 27 },
       { 18, 24 },
       { 27 },
       { 24 },
       { 29 },
       { 23 },
       { 30 },
       { 27 },
       { 30 },
       { 28 },
       { 29 },
       { 29 },
       {  },
       {  },
       {  } ];
